23
9
10 20 8 21 5 17 6 11 0 16 13 1 7 9 19 15 4 22 14 12 2
14 2 22 19 10 12 4 21 11 17 18 5 0 7
22 19 18 16 5 0 21 4 14 17 20 10 15 3 7 8 11 12 13 1 2 9
7 17 5 1 4 18 3 22 9 13 12 16
6 0 18 21 16 11 14 20 3 22 9 19 4 13 2 7 5 12
2 16 0 8 18
12 1 0 21 17 10 14 20 15 2 6 22 7 19
15 16 0 8 12 7 19 9 20 2 5 6 21
1 8 0 11 20 10 4 13 3 7 16 6 21 18 15 22 12 17
